750
1000
800
797
795
794
793
791
791
785
782
782
782
781
781
779
779
775
774
771
771
771
770
770
768
768
767
766
765
765
764
764
764
764
759
759
759
758
757
757
756
755
753
750
748
747
744
743
743
743
740
740
739
739
738
737
736
736
735
734
733
732
731
730
730
728
727
727
725
725
725
725
724
724
723
723
722
722
722
721
720
720
719
718
717
717
714
714
712
712
711
710
710
709
707
706
702
701
700
700
699
697
696
695
695
695
692
692
691
690
688
687
687
687
686
686
686
684
684
683
682
681
680
680
680
679
679
678
678
677
676
675
674
672
670
670
666
665
665
665
665
665
665
664
664
663
661
661
660
660
660
658
655
654
654
654
653
652
651
651
650
649
647
645
644
643
641
640
640
639
639
639
637
635
634
634
634
633
633
632
631
630
629
629
628
626
625
624
624
623
623
621
619
617
615
613
609
608
607
607
606
606
606
603
602
602
602
601
599
595
595
594
594
592
590
589
589
588
587
586
585
585
582
582
581
579
578
578
577
576
575
574
573
572
571
569
567
565
565
565
563
563
562
562
561
560
560
559
558
557
557
556
555
553
551
550
547
547
547
544
544
544
544
544
539
539
539
538
538
537
536
536
535
535
534
534
532
532
532
531
531
530
526
521
520
520
519
519
518
517
517
514
511
510
509
507
506
506
506
506
505
505
504
504
503
501
501
501
499
498
498
497
496
496
496
494
493
493
492
491
490
489
489
486
486
485
483
480
480
479
479
478
478
477
477
476
476
474
474
474
473
473
473
471
470
469
467
467
467
466
466
464
464
463
463
462
460
459
459
458
455
455
453
453
453
453
452
452
451
449
448
446
445
445
443
443
442
442
441
440
440
439
438
438
437
435
434
434
434
433
431
430
429
428
426
424
423
422
422
421
420
420
419
418
417
416
416
416
415
415
415
415
414
413
413
412
412
411
408
408
407
405
403
403
401
399
398
398
398
397
397
396
396
395
395
395
394
394
394
393
390
389
389
387
387
387
386
385
384
383
382
382
381
381
379
376
376
376
373
373
372
372
372
372
371
368
366
365
363
362
361
360
360
359
358
358
357
357
356
354
354
353
353
352
351
351
350
350
349
343
342
342
342
342
340
339
336
336
335
335
335
334
333
333
328
327
327
327
327
326
323
322
322
320
320
318
318
318
317
315
314
314
312
312
312
310
309
309
309
308
308
308
308
307
307
307
306
306
304
303
303
302
302
301
300
299
298
293
292
292
291
291
290
290
286
282
281
280
279
279
279
278
277
277
277
277
275
275
274
274
273
273
271
271
270
270
270
270
270
268
268
266
265
264
263
262
262
262
259
259
258
257
256
254
254
253
253
252
250
250
248
247
247
247
247
246
244
242
242
241
240
238
237
237
237
237
236
234
233
232
232
231
229
228
228
227
223
220
220
219
218
218
217
217
216
216
216
216
214
214
213
212
212
210
210
209
208
208
206
206
204
203
202
200
199
199
198
198
196
194
194
194
193
193
191
191
191
190
186
183
181
180
179
179
179
177
177
169
169
168
167
167
166
165
163
163
162
161
160
160
158
157
157
156
156
153
152
151
150
150
149
147
147
146
146
144
143
143
141
141
141
139
139
139
138
136
135
135
132
132
131
130
128
128
128
126
125
124
123
122
122
122
122
120
117
117
116
114
112
112
111
110
108
107
104
104
104
104
103
101
100
100
